NAME lp_typeD_4739
OBJSENSE MAX
ROWS
 N  OBJ
 L  c0      
 L  c1      
 G  c2      
 G  c3      
 G  c4      
 L  c_key_upper
 G  c_key_lower
 G  _chain_constr_1
 G  _chain_constr_2
 G  _chain_constr_3
 G  _chain_constr_4
 G  _chain_constr_5
 G  _chain_cycle
COLUMNS
    x0        OBJ       1.2762000083989327e+00
    x0        c0        1.6509736560938546e+00
    x0        c1        7.7820214020041290e-01
    x0        c2        1.0158598652465867e+00
    x0        c3        1.4834797149373686e+00
    x0        c4        1.9545081853766602e+00
    x0        c_key_upper  1.88958399741423
    x0        c_key_lower  1.88958399741423
    x1        OBJ       1.1862918656112726e+00
    x1        c0        8.1801370156026953e-01
    x1        c1        7.7666912553666057e-01
    x1        c2        1.3178989704165058e+00
    x1        c3        1.7872403999304749e+00
    x1        c4        1.5086297293918285e+00
    x1        c_key_upper  1.6030299960149086e+00
    x1        c_key_lower  1.6030299960149086e+00
    x2        OBJ       7.1368325017095369e-01
    x2        c0        7.5074104668966757e-01
    x2        c1        1.0618959144101985e+00
    x2        c2        6.6854066140714763e-01
    x2        c3        1.6591193835184170e+00
    x2        c4        6.2046887129372708e-01
    x2        c_key_upper  1.7826165012207684e+00
    x2        c_key_lower  1.7826165012207684e+00
    x3        OBJ       9.6391664635165286e-01
    x3        c0        1.5857355622942637e+00
    x3        c1        1.0560198821418760e+00
    x3        c2        1.2594610755817945e+00
    x3        c3        6.2379925697836391e-01
    x3        c4        1.9294970710411581e+00
    x3        c_key_upper  1.1558010840276367e+00
    x3        c_key_lower  1.1558010840276367e+00
    x4        OBJ       5.3521066788781457e-01
    x4        c0        1.2938446839333522e+00
    x4        c1        0.815229122745641
    x4        c2        1.6979418025095812e+00
    x4        c3        1.3164130957580285e+00
    x4        c4        1.6698106295072503e+00
    x4        c_key_upper  1.4632923645438314e+00
    x4        c_key_lower  1.4632923645438314e+00
    x5        OBJ       1.1127380261168698e+00
    x5        c0        1.3580508018785393e+00
    x5        c1        1.5540454055625208e+00
    x5        c2        0.831922919849414
    x5        c3        9.9265201094484368e-01
    x5        c4        1.0572033458418817e+00
    x5        c_key_upper  1.2628481901250610e+00
    x5        c_key_lower  1.2628481901250610e+00
    x6        OBJ       1.2239476221114871e+00
    x6        c0        1.4481332840524936e+00
    x6        c1        8.1264084192800079e-01
    x6        c2        1.3451274486625089e+00
    x6        c3        0.633195836294865
    x6        c4        1.6826782614183908e+00
    x6        c_key_upper  1.6145677611444818e+00
    x6        c_key_lower  1.6145677611444818e+00
    _chain_var_0  _chain_constr_1  -1
    _chain_var_0  _chain_cycle  1
    _chain_var_1  _chain_constr_1  1
    _chain_var_1  _chain_constr_2  -1
    _chain_var_2  _chain_constr_2  1
    _chain_var_2  _chain_constr_3  -1
    _chain_var_3  _chain_constr_3  1
    _chain_var_3  _chain_constr_4  -1
    _chain_var_4  _chain_constr_4  1
    _chain_var_4  _chain_constr_5  -1
    _chain_var_5  _chain_constr_5  1
    _chain_var_5  _chain_cycle  -1
RHS
    RHS1      c0        4.5357678171602359e+01
    RHS1      c1        3.7837066581520332e+01
    RHS1      c2        1.0996417403220553e+01
    RHS1      c3        1.1087471026212329e+01
    RHS1      c4        1.8144707037876127e+01
    RHS1      c_key_upper  5.3858699472454589e+01
    RHS1      c_key_lower  2.6929349736227294e+01
    RHS1      _chain_constr_1  10
    RHS1      _chain_constr_2  10
    RHS1      _chain_constr_3  10
    RHS1      _chain_constr_4  10
    RHS1      _chain_constr_5  10
    RHS1      _chain_cycle  10
BOUNDS
 UP BND1      x0        10
 UP BND1      x1        10
 UP BND1      x2        10
 UP BND1      x3        10
 UP BND1      x4        10
 UP BND1      x5        10
 UP BND1      x6        10
 UP BND1      _chain_var_0  100
 UP BND1      _chain_var_1  100
 UP BND1      _chain_var_2  100
 UP BND1      _chain_var_3  100
 UP BND1      _chain_var_4  100
 UP BND1      _chain_var_5  100
ENDATA
